networks/zoo_66_1056/zoo_66_1056-lower.txt
Number of groups: 33
Flow 1: {1 2 0} {2 35 0} 
Flow 2: {1 25 0} {25 3 0} {3 36 0} 
Flow 3: {25 4 0} {4 37 0} 
Flow 4: {4 5 0} {5 38 0} 
Flow 5: {25 22 0} {22 21 0} {21 6 0} {6 39 0} 
Flow 6: {1 7 0} {7 40 0} 
Flow 7: {7 8 0} {8 41 0} 
Flow 8: {21 9 0} {9 42 0} 
Flow 9: {21 10 0} {10 43 0} 
Flow 10: {22 14 0} {14 11 0} {11 44 0} 
Flow 11: {22 12 0} {12 45 0} 
Flow 12: {22 13 0} {13 46 0} 
Flow 13: {14 47 0} 
Flow 14: {14 15 0} {15 48 0} 
Flow 15: {8 17 0} {17 16 0} {16 49 0} 
Flow 16: {17 50 0} 
Flow 17: {17 18 0} {18 51 0} 
Flow 18: {21 19 0} {19 52 0} 
Flow 19: {22 20 0} {20 53 0} 
Flow 20: {21 54 0} 
Flow 21: {22 55 0} 
Flow 22: {17 23 0} {23 56 0} 
Flow 23: {25 24 0} {24 57 0} 
Flow 24: {25 58 0} 
Flow 25: {9 26 0} {26 59 0} 
Flow 26: {22 28 0} {28 27 0} {27 60 0} 
Flow 27: {28 61 0} 
Flow 28: {22 29 0} {29 62 0} 
Flow 29: {22 30 0} {30 63 0} 
Flow 30: {22 31 0} {31 64 0} 
Flow 31: {31 32 0} {32 65 0} 
Flow 32: {24 33 0} {33 66 0} 
Flow 33: {2 1 0} {1 34 0} 
Flow 37: {2 7 0} {8 21 0} Flow 42: {21 11 0} Flow 65: {3 25 0} {25 1 0} Flow 69: {3 22 0} Flow 71: {21 8 0} Flow 81: {19 18 0} Flow 97: {4 25 0} Flow 101: {5 21 0} Flow 129: {5 4 0} Flow 134: {8 7 0} Flow 139: {21 22 0} Flow 141: {11 14 0} Flow 147: {21 20 0} Flow 154: {26 27 0} Flow 161: {6 21 0} {7 1 0} Flow 162: {7 2 0} Flow 163: {22 3 0} Flow 164: {21 5 0} Flow 168: {6 9 0} Flow 183: {22 25 0} Flow 257: {9 21 0} Flow 262: {9 6 0} Flow 283: {27 28 0} Flow 289: {10 21 0} Flow 321: {11 21 0} Flow 353: {12 22 0} Flow 385: {13 22 0} Flow 417: {14 22 0} Flow 449: {15 14 0} Flow 481: {16 17 0} {17 8 0} Flow 498: {18 19 0} Flow 545: {18 17 0} Flow 547: {19 21 0} Flow 609: {20 22 0} Flow 610: {20 21 0} Flow 705: {23 17 0} Flow 737: {24 25 0} Flow 767: {33 32 0} Flow 801: {26 9 0} Flow 833: {28 22 0} Flow 837: {27 26 0} Flow 897: {29 22 0} Flow 925: {29 30 0} Flow 929: {30 22 0} Flow 957: {30 29 0} Flow 961: {31 22 0} Flow 992: {32 33 0} Flow 993: {32 31 0} Flow 1016: {33 24 0} Time taken running everything: 0 seconds
