networks/zoo_66_1056/zoo_66_1056-lower.sol
<?xml version = "1.0" encoding="UTF-8" standalone="yes"?>
<CPLEXSolution version="1.2">
 <header
   problemName="networks/zoo_66_1056/zoo_66_1056-lower.lp"
   solutionName="incumbent"
   solutionIndex="-1"
   objectiveValue="33"
   solutionTypeValue="3"
   solutionTypeString="primal"
   solutionStatusValue="101"
   solutionStatusString="integer optimal solution"
   solutionMethodString="mip"
   primalFeasible="1"
   dualFeasible="1"
   MIPNodes="0"
   MIPIterations="0"
   writeLevel="3"/>
 <quality
   epInt="1.0000000000000001e-05"
   epRHS="9.9999999999999995e-07"
   maxIntInfeas="0"
   maxPrimalInfeas="0"
   maxX="1"
   maxSlack="1"/>
 <variables>
  <variable name="Y(1,2)" index="1" value="1"/>
  <variable name="Y(2,3)" index="68" value="1"/>
  <variable name="Y(3,4)" index="135" value="1"/>
  <variable name="Y(4,5)" index="202" value="1"/>
  <variable name="Y(5,6)" index="269" value="1"/>
  <variable name="Y(6,7)" index="336" value="1"/>
  <variable name="Y(7,8)" index="403" value="1"/>
  <variable name="Y(8,9)" index="470" value="1"/>
  <variable name="Y(9,10)" index="537" value="1"/>
  <variable name="Y(10,11)" index="604" value="1"/>
  <variable name="Y(11,12)" index="671" value="1"/>
  <variable name="Y(12,13)" index="738" value="1"/>
  <variable name="Y(13,14)" index="805" value="1"/>
  <variable name="Y(14,15)" index="872" value="1"/>
  <variable name="Y(15,16)" index="939" value="1"/>
  <variable name="Y(16,17)" index="1006" value="1"/>
  <variable name="Y(17,18)" index="1073" value="1"/>
  <variable name="Y(18,19)" index="1140" value="1"/>
  <variable name="Y(19,20)" index="1207" value="1"/>
  <variable name="Y(20,21)" index="1274" value="1"/>
  <variable name="Y(21,22)" index="1341" value="1"/>
  <variable name="Y(22,23)" index="1408" value="1"/>
  <variable name="Y(23,24)" index="1475" value="1"/>
  <variable name="Y(24,25)" index="1542" value="1"/>
  <variable name="Y(25,26)" index="1609" value="1"/>
  <variable name="Y(26,27)" index="1676" value="1"/>
  <variable name="Y(27,28)" index="1743" value="1"/>
  <variable name="Y(28,29)" index="1810" value="1"/>
  <variable name="Y(29,30)" index="1877" value="1"/>
  <variable name="Y(30,31)" index="1944" value="1"/>
  <variable name="Y(31,32)" index="2011" value="1"/>
  <variable name="Y(32,33)" index="2078" value="1"/>
  <variable name="Y(33,1)" index="2112" value="1"/>
  <variable name="X(1,2,1)" index="69696" value="1"/>
  <variable name="X(1,7,6)" index="70757" value="1"/>
  <variable name="X(1,25,2)" index="71809" value="1"/>
  <variable name="X(1,34,33)" index="72896" value="1"/>
  <variable name="X(2,1,33)" index="73952" value="1"/>
  <variable name="X(2,7,37)" index="75012" value="1"/>
  <variable name="X(2,35,1)" index="76032" value="1"/>
  <variable name="X(3,22,69)" index="77156" value="1"/>
  <variable name="X(3,25,65)" index="78208" value="1"/>
  <variable name="X(3,36,2)" index="79201" value="1"/>
  <variable name="X(4,5,4)" index="80259" value="1"/>
  <variable name="X(4,25,97)" index="81408" value="1"/>
  <variable name="X(4,37,3)" index="82370" value="1"/>
  <variable name="X(5,4,129)" index="83552" value="1"/>
  <variable name="X(5,21,101)" index="84580" value="1"/>
  <variable name="X(5,38,4)" index="85539" value="1"/>
  <variable name="X(6,9,168)" index="86759" value="1"/>
  <variable name="X(6,21,161)" index="87808" value="1"/>
  <variable name="X(6,39,5)" index="88708" value="1"/>
  <variable name="X(7,1,161)" index="89920" value="1"/>
  <variable name="X(7,2,162)" index="90977" value="1"/>
  <variable name="X(7,8,7)" index="91878" value="1"/>
  <variable name="X(7,40,6)" index="92933" value="1"/>
  <variable name="X(8,7,134)" index="94117" value="1"/>
  <variable name="X(8,17,15)" index="95054" value="1"/>
  <variable name="X(8,21,37)" index="96132" value="1"/>
  <variable name="X(8,41,7)" index="97158" value="1"/>
  <variable name="X(9,6,262)" index="98469" value="1"/>
  <variable name="X(9,21,257)" index="99520" value="1"/>
  <variable name="X(9,26,25)" index="100344" value="1"/>
  <variable name="X(9,42,8)" index="101383" value="1"/>
  <variable name="X(10,21,289)" index="102720" value="1"/>
  <variable name="X(10,43,9)" index="103496" value="1"/>
  <variable name="X(11,14,141)" index="104684" value="1"/>
  <variable name="X(11,21,321)" index="105920" value="1"/>
  <variable name="X(11,44,10)" index="106665" value="1"/>
  <variable name="X(12,22,353)" index="108064" value="1"/>
  <variable name="X(12,45,11)" index="108778" value="1"/>
  <variable name="X(13,22,385)" index="110208" value="1"/>
  <variable name="X(13,46,12)" index="110891" value="1"/>
  <variable name="X(14,11,10)" index="111945" value="1"/>
  <variable name="X(14,15,14)" index="113005" value="1"/>
  <variable name="X(14,22,417)" index="114464" value="1"/>
  <variable name="X(14,47,13)" index="115116" value="1"/>
  <variable name="X(15,14,449)" index="116608" value="1"/>
  <variable name="X(15,48,14)" index="117229" value="1"/>
  <variable name="X(16,17,481)" index="118752" value="1"/>
  <variable name="X(16,49,15)" index="119342" value="1"/>
  <variable name="X(17,8,481)" index="120864" value="1"/>
  <variable name="X(17,16,15)" index="121454" value="1"/>
  <variable name="X(17,18,17)" index="122512" value="1"/>
  <variable name="X(17,23,22)" index="123573" value="1"/>
  <variable name="X(17,50,16)" index="124623" value="1"/>
  <variable name="X(18,17,545)" index="126208" value="1"/>
  <variable name="X(18,19,498)" index="127217" value="1"/>
  <variable name="X(18,51,17)" index="127792" value="1"/>
  <variable name="X(19,18,81)" index="128912" value="1"/>
  <variable name="X(19,21,547)" index="130434" value="1"/>
  <variable name="X(19,52,18)" index="130961" value="1"/>
  <variable name="X(20,21,610)" index="132609" value="1"/>
  <variable name="X(20,22,609)" index="133664" value="1"/>
  <variable name="X(20,53,19)" index="134130" value="1"/>
  <variable name="X(21,5,164)" index="135331" value="1"/>
  <variable name="X(21,6,5)" index="136228" value="1"/>
  <variable name="X(21,8,71)" index="137350" value="1"/>
  <variable name="X(21,9,8)" index="138343" value="1"/>
  <variable name="X(21,10,9)" index="139400" value="1"/>
  <variable name="X(21,11,42)" index="140489" value="1"/>
  <variable name="X(21,19,18)" index="141521" value="1"/>
  <variable name="X(21,20,147)" index="142706" value="1"/>
  <variable name="X(21,22,139)" index="143754" value="1"/>
  <variable name="X(21,54,20)" index="144691" value="1"/>
  <variable name="X(22,3,163)" index="145890" value="1"/>
  <variable name="X(22,12,11)" index="146794" value="1"/>
  <variable name="X(22,13,12)" index="147851" value="1"/>
  <variable name="X(22,14,10)" index="148905" value="1"/>
  <variable name="X(22,20,19)" index="149970" value="1"/>
  <variable name="X(22,21,5)" index="151012" value="1"/>
  <variable name="X(22,25,183)" index="152246" value="1"/>
  <variable name="X(22,28,26)" index="153145" value="1"/>
  <variable name="X(22,29,28)" index="154203" value="1"/>
  <variable name="X(22,30,29)" index="155260" value="1"/>
  <variable name="X(22,31,30)" index="156317" value="1"/>
  <variable name="X(22,55,21)" index="157364" value="1"/>
  <variable name="X(23,17,705)" index="159104" value="1"/>
  <variable name="X(23,56,22)" index="159477" value="1"/>
  <variable name="X(24,25,737)" index="161248" value="1"/>
  <variable name="X(24,33,32)" index="161599" value="1"/>
  <variable name="X(24,57,23)" index="162646" value="1"/>
  <variable name="X(25,1,65)" index="163744" value="1"/>
  <variable name="X(25,3,2)" index="164737" value="1"/>
  <variable name="X(25,4,3)" index="165794" value="1"/>
  <variable name="X(25,22,5)" index="166852" value="1"/>
  <variable name="X(25,24,23)" index="167926" value="1"/>
  <variable name="X(25,58,24)" index="168983" value="1"/>
  <variable name="X(26,9,801)" index="170816" value="1"/>
  <variable name="X(26,27,154)" index="171225" value="1"/>
  <variable name="X(26,59,25)" index="172152" value="1"/>
  <variable name="X(27,26,837)" index="174020" value="1"/>
  <variable name="X(27,28,283)" index="174522" value="1"/>
  <variable name="X(27,60,26)" index="175321" value="1"/>
  <variable name="X(28,22,833)" index="177184" value="1"/>
  <variable name="X(28,27,26)" index="177433" value="1"/>
  <variable name="X(28,61,27)" index="178490" value="1"/>
  <variable name="X(29,22,897)" index="180416" value="1"/>
  <variable name="X(29,30,925)" index="181500" value="1"/>
  <variable name="X(29,62,28)" index="181659" value="1"/>
  <variable name="X(30,22,929)" index="183616" value="1"/>
  <variable name="X(30,29,957)" index="184700" value="1"/>
  <variable name="X(30,63,29)" index="184828" value="1"/>
  <variable name="X(31,22,961)" index="186816" value="1"/>
  <variable name="X(31,32,31)" index="186942" value="1"/>
  <variable name="X(31,64,30)" index="187997" value="1"/>
  <variable name="X(32,31,993)" index="190016" value="1"/>
  <variable name="X(32,33,992)" index="191071" value="1"/>
  <variable name="X(32,65,31)" index="191166" value="1"/>
  <variable name="X(33,24,1016)" index="193207" value="1"/>
  <variable name="X(33,32,767)" index="194014" value="1"/>
  <variable name="X(33,66,32)" index="194335" value="1"/>
 </variables>
</CPLEXSolution>
